language ESSENCE' 1.0

letting n_courses be 128
letting n_periods be 20
letting prerequisite_RelationAsSet_Explicit_1 be
        [1, 1, 1, 1, 1, 1, 1, 1, 1, 1, 2, 2, 2, 2, 2, 2, 2, 2, 2, 2, 2, 3, 3, 3, 3, 3, 3, 3, 3, 3, 3, 3, 4, 4, 4, 4, 4,
         4, 4, 4, 4, 4, 4, 5, 5, 5, 5, 5, 5, 5, 6, 6, 6, 6, 6, 6, 6, 6, 6, 6, 6, 7, 7, 7, 7, 7, 7, 7, 7, 7, 8, 8, 8, 8,
         8, 8, 8, 8, 8, 9, 9, 9, 9, 9, 9, 9, 9, 9, 9, 9, 9, 9, 9, 9, 9, 10, 10, 10, 10, 10, 10, 10, 10, 10, 11, 11, 11,
         11, 11, 11, 11, 11, 11, 11, 11, 12, 12, 12, 12, 12, 12, 12, 12, 12, 12, 13, 13, 13, 13, 13, 13, 13, 14, 14, 14,
         14, 14, 15, 15, 15, 15, 15, 15, 15, 15, 15, 15, 16, 16, 16, 16, 16, 16, 16, 16, 16, 16, 16, 16, 17, 17, 17, 17,
         17, 17, 17, 17, 17, 17, 17, 17, 18, 18, 18, 18, 18, 19, 19, 19, 19, 19, 19, 19, 19, 19, 19, 19, 19, 19, 19, 20,
         20, 20, 20, 20, 20, 21, 21, 21, 21, 21, 21, 21, 21, 21, 21, 21, 22, 22, 22, 22, 22, 22, 22, 22, 22, 22, 23, 23,
         23, 23, 23, 23, 23, 23, 23, 23, 23, 23, 23, 24, 24, 24, 24, 24, 24, 24, 24, 24, 24, 24, 24, 25, 25, 25, 25, 25,
         25, 25, 25, 25, 25, 25, 26, 26, 26, 26, 26, 26, 26, 26, 26, 27, 27, 27, 27, 27, 27, 27, 27, 27, 27, 27, 27, 28,
         28, 28, 28, 28, 28, 28, 28, 28, 28, 29, 29, 29, 29, 29, 29, 29, 30, 30, 30, 30, 30, 30, 30, 30, 30, 30, 30, 30,
         30, 30, 30, 30, 30, 31, 31, 31, 31, 31, 31, 31, 32, 32, 32, 32, 32, 32, 32, 32, 32, 32, 33, 33, 33, 33, 33, 33,
         34, 34, 34, 35, 35, 35, 35, 35, 36, 36, 36, 36, 36, 37, 37, 38, 38, 38, 39, 39, 39, 39, 39, 39, 40, 40, 40, 41,
         41, 41, 41, 41, 41, 41, 42, 42, 43, 43, 44, 44, 44, 44, 44, 45, 45, 45, 45, 46, 46, 46, 46, 46, 46, 46, 47, 47,
         47, 47, 47, 48, 48, 49, 49, 49, 49, 50, 50, 50, 50, 50, 50, 51, 51, 51, 51, 51, 51, 51, 52, 52, 53, 53, 53, 53,
         53, 53, 53, 54, 54, 54, 54, 54, 54, 55, 55, 56, 56, 56, 57, 57, 57, 58, 58, 58, 58, 58, 59, 59, 59, 59, 59, 60,
         60, 60, 61, 61, 61, 61, 61, 62, 62, 62, 63, 63, 63, 63, 63, 63, 64, 64, 64, 65, 65, 65, 65, 66, 66, 66, 66, 67,
         67, 67, 67, 67, 68, 68, 69, 69, 69, 70, 70, 70, 71, 71, 71, 71, 71, 71, 71, 71, 72, 72, 72, 72, 72, 72, 73, 73,
         73, 73, 74, 75, 75, 75, 75, 75, 76, 76, 76, 76, 76, 76, 76, 76, 76, 77, 77, 77, 77, 77, 77, 77, 78, 78, 78, 78,
         78, 79, 79, 79, 79, 79, 80, 80, 80, 80, 80, 80, 81, 81, 81, 81, 82, 83, 83, 83, 83, 84, 84, 84, 84, 84, 84, 84,
         85, 85, 85, 85, 86, 86, 86, 86, 86, 86, 86, 86, 87, 87, 87, 87, 87, 87, 88, 88, 88, 88, 88, 88, 88, 88, 88, 89,
         89, 89, 89, 90, 90, 90, 90, 90, 90, 90, 91, 91, 91, 91, 91, 91, 92, 92, 93, 93, 93, 93, 94, 94, 94, 94, 94;
             int(1..610)]
letting prerequisite_RelationAsSet_Explicit_2 be
        [37, 42, 43, 50, 52, 59, 72, 76, 80, 84, 44, 50, 58, 59, 61, 64, 73, 77, 78, 89, 93, 39, 41, 42, 45, 47, 49, 66,
         82, 83, 89, 92, 36, 38, 40, 63, 64, 65, 68, 72, 75, 79, 94, 35, 43, 60, 81, 82, 87, 88, 35, 36, 40, 59, 73, 79,
         82, 84, 88, 90, 92, 32, 35, 45, 51, 54, 56, 65, 68, 77, 34, 37, 50, 53, 56, 65, 73, 75, 94, 32, 34, 41, 43, 49,
         51, 56, 60, 70, 74, 76, 83, 84, 85, 93, 94, 37, 40, 49, 50, 52, 55, 62, 89, 94, 33, 36, 41, 51, 60, 73, 82, 85,
         88, 92, 94, 35, 36, 48, 50, 58, 74, 76, 85, 87, 88, 37, 49, 66, 67, 73, 83, 89, 43, 48, 59, 77, 93, 43, 49, 55,
         57, 65, 70, 74, 75, 76, 87, 34, 48, 53, 55, 61, 63, 65, 69, 76, 77, 80, 85, 37, 40, 41, 47, 51, 55, 60, 72, 75,
         82, 83, 91, 50, 58, 68, 93, 94, 35, 39, 41, 42, 45, 49, 54, 59, 66, 70, 71, 77, 80, 93, 41, 50, 61, 67, 71, 74,
         36, 52, 60, 64, 67, 73, 75, 77, 80, 81, 89, 43, 48, 55, 60, 63, 64, 77, 81, 83, 92, 40, 41, 48, 52, 61, 65, 67,
         71, 74, 80, 83, 86, 94, 48, 49, 52, 53, 54, 61, 62, 64, 74, 79, 85, 88, 32, 34, 38, 49, 61, 64, 66, 79, 82, 84,
         92, 42, 58, 62, 67, 76, 77, 78, 81, 94, 32, 38, 48, 56, 69, 73, 78, 86, 87, 89, 90, 92, 33, 37, 49, 51, 62, 67,
         80, 83, 86, 91, 32, 48, 55, 75, 81, 84, 94, 33, 37, 42, 46, 51, 52, 66, 67, 69, 71, 75, 81, 84, 85, 87, 88, 92,
         37, 47, 57, 59, 75, 80, 83, 95, 98, 105, 113, 115, 117, 119, 122, 125, 126, 95, 99, 102, 109, 118, 125, 97,
         119, 120, 96, 99, 105, 109, 112, 97, 107, 109, 125, 126, 99, 122, 100, 111, 127, 100, 106, 112, 116, 121, 127,
         95, 99, 102, 101, 103, 104, 106, 107, 120, 124, 98, 125, 110, 117, 95, 110, 111, 123, 128, 109, 110, 116, 127,
         101, 103, 111, 114, 116, 121, 126, 95, 100, 111, 121, 124, 115, 123, 99, 108, 115, 126, 98, 99, 108, 110, 116,
         120, 96, 97, 102, 111, 117, 124, 125, 121, 127, 95, 100, 106, 110, 123, 126, 128, 101, 106, 112, 113, 121, 128,
         101, 114, 103, 105, 122, 100, 101, 118, 96, 97, 103, 114, 116, 95, 102, 106, 123, 127, 96, 111, 124, 113, 120,
         123, 124, 128, 100, 110, 127, 95, 99, 106, 111, 115, 118, 95, 111, 115, 99, 104, 119, 125, 105, 115, 127, 128,
         95, 100, 103, 111, 118, 104, 115, 95, 100, 114, 98, 104, 108, 96, 102, 106, 109, 111, 112, 116, 124, 98, 100,
         105, 109, 122, 125, 101, 111, 124, 125, 95, 97, 102, 105, 112, 115, 100, 103, 105, 106, 112, 115, 121, 122,
         126, 102, 106, 109, 115, 116, 117, 120, 100, 110, 118, 125, 126, 96, 103, 105, 123, 128, 99, 101, 102, 108,
         110, 114, 102, 115, 116, 128, 97, 97, 108, 113, 116, 100, 109, 112, 117, 120, 123, 128, 101, 113, 127, 128,
         100, 101, 106, 122, 123, 125, 126, 128, 98, 110, 118, 120, 121, 126, 96, 97, 101, 103, 105, 107, 108, 116, 127,
         110, 125, 126, 127, 96, 101, 103, 112, 116, 122, 124, 96, 98, 100, 115, 120, 121, 99, 126, 102, 103, 114, 128,
         100, 103, 108, 119, 122;
             int(1..610)]
letting course_load_Function1D be
        [3, 3, 3, 3, 3, 3, 3, 4, 3, 3, 4, 3, 4, 3, 3, 3, 3, 3, 3, 3, 3, 4, 3, 3, 4, 4, 4, 4, 4, 4, 3, 4, 4, 3, 4, 3, 3,
         3, 3, 3, 3, 3, 3, 3, 4, 3, 3, 3, 3, 4, 4, 3, 3, 3, 3, 3, 3, 3, 3, 4, 4, 3, 3, 3, 4, 3, 4, 3, 3, 3, 4, 4, 3, 3,
         3, 3, 3, 3, 3, 3, 3, 3, 3, 3, 3, 4, 4, 3, 3, 4, 3, 4, 4, 3, 3, 3, 3, 4, 3, 3, 4, 3, 3, 3, 3, 3, 3, 3, 4, 4, 4,
         3, 3, 4, 4, 3, 3, 3, 4, 4, 3, 4, 3, 3, 3, 3, 4, 3;
             int(1..128)]
letting load_per_period_ub be 41
letting load_per_period_lb be 5
letting courses_per_period_ub be 10
letting courses_per_period_lb be 4
letting fin1 be 610
letting fin2 be 128
letting fin3 be 4
